Traveling Salesman Problem/TSP_generados/Aleatorio1621103270_7.tsp
NAME: Aleatorio1621103270_7.tsp
COMMENT: Randomly generated scenario
TYPE: TSP
DIMENSION: 7
EDGE_WEIGHT_TYPE: ATT
NODE_COORD_SECTION
1 24.11 7.67
2 2.66 35.14
3 15.95 39.28
4 48.39 0.56
5 28.75 12.9
6 22.99 44.39
7 15.54 7.97
