Traveling Salesman Problem/TSP_generados/Aleatorio1621103270_7.opt.tour
NAME: Aleatorio1621103270_7.opt.tour
COMMENT: Optimal solution for Aleatorio1621103270_7 (141.7695413742917)
TYPE: TOUR
DIMENSION: 7
TOUR_SECTION
1 4 5 6 3 2 7
-1
EOF
